# LAMMPS input script for Argon with Lennard-Jones potential
units       metal
atom_style  atomic

# Create a box and atoms
lattice         fcc 5.25121198451
region          box block 0 1 0 1 0 1
create_box      1 box
create_atoms    1 box

mass 1 39.9480

write_data      Ar_FCC_init.lammps

# Define the Lennard-Jones potential
pair_style      lj/cut 20
pair_coeff      1 1 0.010325947230266126 3.405 20

# Define thermodynamic output
thermo          100
thermo_style    custom step temp pe etotal press vol

fix 1 all box/relax iso 0.0 vmax 0.001
min_style cg
minimize 1.0e-4 1.0e-6 100 1000
write_data      Ar_FCC_relaxed.lammps

unfix 1
replicate 3 3 3
timestep 0.001

#
variable Tpremelt equal 500
variable Piters equal 10000 # 10 ps
variable Tmin equal 300
variable Tmax equal 360
variable Tstep equal 10
variable Tloop equal (${Tmax}-${Tmin})/${Tstep}+1

velocity all create ${Tpremelt} 6265 dist gaussian

# Premelting for 10 ps
fix 1 all nvt temp ${Tpremelt} ${Tpremelt} 1
run ${Piters}

variable Miters equal 50000 # 50 ps
variable i loop ${Tloop}
label loop

variable Tmelt equal ${Tmin}+(${i}-1)*${Tstep}

# equilibration at melting for 50 ps
unfix 1
reset_timestep 0

fix 1 all nvt temp ${Tmelt} ${Tmelt} 1
run ${Miters}

reset_timestep 0

dump 		    traj all custom 100 dump_${Tmelt}.lammps id type x y z
dump_modify traj sort id

compute         my_msd all msd
compute         msd_com all msd com yes
fix             2 all ave/time 10 10 100 c_my_msd[4] c_msd_com[4] file MSD_${Tmelt}.txt

run ${Miters}

uncompute my_msd
uncompute msd_com
undump traj
unfix 2

next i
jump SELF loop
