# sample surface deposition script for atoms
units       lj
atom_style  atomic
boundary    p p f

lattice     fcc 1.0
region      box block 0 5 0 5 0 10
create_box  2 box

region      substrate block INF INF INF INF INF 3
create_atoms  1 region substrate

pair_style	lj/cut 2.5
pair_coeff	* * 1.0 1.0
pair_coeff	1 2 1.0 1.0 5.0

mass        * 1.0

neigh_modify	delay 0

group		addatoms type 2
region  mobile block 0 5 0 5 2 INF
group		mobile region mobile

compute		add addatoms temp
compute_modify	add dynamic/dof yes extra/dof 0

fix		1 addatoms nve
fix		2 mobile langevin 0.2 0.2 1 587283
fix		3 mobile nve

molecule    dimer molecule.dimer toff 1
region  slab block EDGE EDGE EDGE EDGE 8 9
#fix ID group-ID deposit N type M seed keyword values
#  N = # of atoms or molecules to insert
#  type = atom type (1-Ntypes or type label) to assign to inserted atoms (offset for molecule insertion)
#  M = insert a single atom or molecule every M steps
#  mol value = template-ID # template-ID = ID of molecule template specified in a separate molecule command
fix		      4 addatoms deposit 10 0 10000 12345 region slab near 1.0 mol dimer vz -0.1 -0.1
fix		      5 addatoms wall/reflect zhi EDGE

thermo_style	custom step atoms temp epair etotal press
thermo          1000
thermo_modify	temp add lost ignore

dump		1 all atom 1000 dump.deposit.mol

run             100000
